(declare-fun temp307_1 () (_ BitVec 64))
(declare-fun var527257 () (_ BitVec 64))
(declare-fun var527256 () (_ BitVec 64))
(declare-fun var134691 () (_ BitVec 64))
(declare-fun var594101 () (_ BitVec 64))
(declare-fun var659958 () (_ BitVec 64))
(declare-fun temp307_2 () (_ BitVec 64))
(declare-fun var2690683 () (_ BitVec 64))
(declare-fun var2690688 () (_ BitVec 64))
(declare-fun var2820316 () (_ BitVec 64))
(declare-fun temp307_3 () (_ BitVec 64))
(declare-fun var3214971 () (_ BitVec 64))
(declare-fun var3214976 () (_ BitVec 64))
(declare-fun var3344604 () (_ BitVec 64))
(declare-fun temp307_5 () (_ BitVec 64))
(declare-fun temp307_4 () (_ BitVec 64))
(declare-fun temp307_7 () (_ BitVec 64))
(declare-fun temp307_6 () (_ BitVec 64))
(declare-fun temp307_9 () (_ BitVec 64))
(declare-fun temp307_8 () (_ BitVec 64))
(declare-fun temp307_11 () (_ BitVec 64))
(declare-fun temp307_10 () (_ BitVec 64))
(declare-fun temp307_13 () (_ BitVec 64))
(declare-fun temp307_12 () (_ BitVec 64))
(declare-fun temp307_15 () (_ BitVec 64))
(declare-fun temp307_14 () (_ BitVec 64))
(declare-fun temp307_17 () (_ BitVec 64))
(declare-fun temp307_16 () (_ BitVec 64))
(declare-fun temp307_19 () (_ BitVec 64))
(declare-fun temp307_18 () (_ BitVec 64))
(declare-fun temp307_21 () (_ BitVec 64))
(declare-fun temp307_20 () (_ BitVec 64))
(declare-fun temp307_23 () (_ BitVec 64))
(declare-fun temp307_22 () (_ BitVec 64))
(declare-fun temp307_25 () (_ BitVec 64))
(declare-fun temp307_24 () (_ BitVec 64))
(declare-fun temp307_27 () (_ BitVec 64))
(declare-fun temp307_26 () (_ BitVec 64))
(declare-fun temp307_29 () (_ BitVec 64))
(declare-fun temp307_28 () (_ BitVec 64))
(declare-fun temp307_31 () (_ BitVec 64))
(declare-fun temp307_30 () (_ BitVec 64))
(declare-fun temp307_33 () (_ BitVec 64))
(declare-fun temp307_32 () (_ BitVec 64))
(declare-fun temp307_35 () (_ BitVec 64))
(declare-fun temp307_34 () (_ BitVec 64))
(declare-fun temp307_37 () (_ BitVec 64))
(declare-fun temp307_36 () (_ BitVec 64))
(declare-fun temp307_39 () (_ BitVec 64))
(declare-fun temp307_38 () (_ BitVec 64))
(declare-fun temp307_41 () (_ BitVec 64))
(declare-fun temp307_40 () (_ BitVec 64))
(declare-fun temp307_43 () (_ BitVec 64))
(declare-fun temp307_42 () (_ BitVec 64))
(declare-fun temp307_45 () (_ BitVec 64))
(declare-fun temp307_44 () (_ BitVec 64))
(declare-fun temp307_47 () (_ BitVec 64))
(declare-fun temp307_46 () (_ BitVec 64))
(declare-fun temp307_49 () (_ BitVec 64))
(declare-fun temp307_48 () (_ BitVec 64))
(declare-fun temp307_51 () (_ BitVec 64))
(declare-fun temp307_50 () (_ BitVec 64))
(declare-fun temp307_53 () (_ BitVec 64))
(declare-fun temp307_52 () (_ BitVec 64))
(declare-fun temp307_55 () (_ BitVec 64))
(declare-fun temp307_54 () (_ BitVec 64))
(declare-fun temp307_57 () (_ BitVec 64))
(declare-fun temp307_56 () (_ BitVec 64))
(declare-fun temp307_58 () (_ BitVec 64))
(declare-fun var4918907 () (_ BitVec 64))
(declare-fun var4918912 () (_ BitVec 64))
(declare-fun var5048540 () (_ BitVec 64))
(assert (= temp307_1 #x0000000000000007))
(assert (= var527257 temp307_1))
(assert (= var527256 var527257))
(assert (= var134691 var527256))
(assert (= var594101 var134691))
(assert (= var659958 var594101))
(assert (= temp307_2 #x0000000000000000))
(assert (= var2690683 temp307_2))
(assert (= var2690688 var2690683))
(assert (= var2820316 var2690688))
(assert (= temp307_3 #x0000000000000000))
(assert (= var3214971 temp307_3))
(assert (= var3214976 var3214971))
(assert (= var3344604 var3214976))
(assert (= temp307_5 #x0000000000000000))
(assert (= temp307_4 temp307_5))
(assert (= temp307_7 #x0000000000000000))
(assert (= temp307_6 temp307_7))
(assert (= temp307_9 #x0000000000000000))
(assert (= temp307_8 temp307_9))
(assert (= temp307_11 #x0000000000000000))
(assert (= temp307_10 temp307_11))
(assert (= temp307_13 #x0000000000000000))
(assert (= temp307_12 temp307_13))
(assert (= temp307_15 #x0000000000000000))
(assert (= temp307_14 temp307_15))
(assert (= temp307_17 #x0000000000000000))
(assert (= temp307_16 temp307_17))
(assert (= temp307_19 #x0000000000000000))
(assert (= temp307_18 temp307_19))
(assert (= temp307_21 #x0000000000000000))
(assert (= temp307_20 temp307_21))
(assert (= temp307_23 #x0000000000000000))
(assert (= temp307_22 temp307_23))
(assert (= temp307_25 #x0000000000000000))
(assert (= temp307_24 temp307_25))
(assert (= temp307_27 #x0000000000000000))
(assert (= temp307_26 temp307_27))
(assert (= temp307_29 #x0000000000000000))
(assert (= temp307_28 temp307_29))
(assert (= temp307_31 #x0000000000000000))
(assert (= temp307_30 temp307_31))
(assert (= temp307_33 #x0000000000000000))
(assert (= temp307_32 temp307_33))
(assert (= temp307_35 #x0000000000000000))
(assert (= temp307_34 temp307_35))
(assert (= temp307_37 #x0000000000000000))
(assert (= temp307_36 temp307_37))
(assert (= temp307_39 #x0000000000000000))
(assert (= temp307_38 temp307_39))
(assert (= temp307_41 #x0000000000000000))
(assert (= temp307_40 temp307_41))
(assert (= temp307_43 #x0000000000000000))
(assert (= temp307_42 temp307_43))
(assert (= temp307_45 #x0000000000000000))
(assert (= temp307_44 temp307_45))
(assert (= temp307_47 #x0000000000000000))
(assert (= temp307_46 temp307_47))
(assert (= temp307_49 #x0000000000000000))
(assert (= temp307_48 temp307_49))
(assert (= temp307_51 #x0000000000000000))
(assert (= temp307_50 temp307_51))
(assert (= temp307_53 #x0000000000000000))
(assert (= temp307_52 temp307_53))
(assert (= temp307_55 #x0000000000000000))
(assert (= temp307_54 temp307_55))
(assert (= temp307_57 #x0000000000000000))
(assert (= temp307_56 temp307_57))
(assert (= temp307_58 #x0000000000000000))
(assert (= var4918907 temp307_58))
(assert (= var4918912 var4918907))
(assert (= var5048540 var4918912))
(model-add temp307_1 () (_ BitVec 64) #x0000000000000007)
(model-add var527257 () (_ BitVec 64) #x0000000000000007)
(model-add var527256 () (_ BitVec 64) #x0000000000000007)
(model-add var134691 () (_ BitVec 64) #x0000000000000007)
(model-add var594101 () (_ BitVec 64) #x0000000000000007)
(model-add var659958 () (_ BitVec 64) #x0000000000000007)
(model-add temp307_2 () (_ BitVec 64) #x0000000000000000)
(model-add var2690683 () (_ BitVec 64) #x0000000000000000)
(model-add var2690688 () (_ BitVec 64) #x0000000000000000)
(model-add var2820316 () (_ BitVec 64) #x0000000000000000)
(model-add temp307_3 () (_ BitVec 64) #x0000000000000000)
(model-add var3214971 () (_ BitVec 64) #x0000000000000000)
(model-add var3214976 () (_ BitVec 64) #x0000000000000000)
(model-add var3344604 () (_ BitVec 64) #x0000000000000000)
(model-add temp307_5 () (_ BitVec 64) #x0000000000000000)
(model-add temp307_4 () (_ BitVec 64) #x0000000000000000)
(model-add temp307_7 () (_ BitVec 64) #x0000000000000000)
(model-add temp307_6 () (_ BitVec 64) #x0000000000000000)
(model-add temp307_9 () (_ BitVec 64) #x0000000000000000)
(model-add temp307_8 () (_ BitVec 64) #x0000000000000000)
(model-add temp307_11 () (_ BitVec 64) #x0000000000000000)
(model-add temp307_10 () (_ BitVec 64) #x0000000000000000)
(model-add temp307_13 () (_ BitVec 64) #x0000000000000000)
(model-add temp307_12 () (_ BitVec 64) #x0000000000000000)
(model-add temp307_15 () (_ BitVec 64) #x0000000000000000)
(model-add temp307_14 () (_ BitVec 64) #x0000000000000000)
(model-add temp307_17 () (_ BitVec 64) #x0000000000000000)
(model-add temp307_16 () (_ BitVec 64) #x0000000000000000)
(model-add temp307_19 () (_ BitVec 64) #x0000000000000000)
(model-add temp307_18 () (_ BitVec 64) #x0000000000000000)
(model-add temp307_21 () (_ BitVec 64) #x0000000000000000)
(model-add temp307_20 () (_ BitVec 64) #x0000000000000000)
(model-add temp307_23 () (_ BitVec 64) #x0000000000000000)
(model-add temp307_22 () (_ BitVec 64) #x0000000000000000)
(model-add temp307_25 () (_ BitVec 64) #x0000000000000000)
(model-add temp307_24 () (_ BitVec 64) #x0000000000000000)
(model-add temp307_27 () (_ BitVec 64) #x0000000000000000)
(model-add temp307_26 () (_ BitVec 64) #x0000000000000000)
(model-add temp307_29 () (_ BitVec 64) #x0000000000000000)
(model-add temp307_28 () (_ BitVec 64) #x0000000000000000)
(model-add temp307_31 () (_ BitVec 64) #x0000000000000000)
(model-add temp307_30 () (_ BitVec 64) #x0000000000000000)
(model-add temp307_33 () (_ BitVec 64) #x0000000000000000)
(model-add temp307_32 () (_ BitVec 64) #x0000000000000000)
(model-add temp307_35 () (_ BitVec 64) #x0000000000000000)
(model-add temp307_34 () (_ BitVec 64) #x0000000000000000)
(model-add temp307_37 () (_ BitVec 64) #x0000000000000000)
(model-add temp307_36 () (_ BitVec 64) #x0000000000000000)
(model-add temp307_39 () (_ BitVec 64) #x0000000000000000)
(model-add temp307_38 () (_ BitVec 64) #x0000000000000000)
(model-add temp307_41 () (_ BitVec 64) #x0000000000000000)
(model-add temp307_40 () (_ BitVec 64) #x0000000000000000)
(model-add temp307_43 () (_ BitVec 64) #x0000000000000000)
(model-add temp307_42 () (_ BitVec 64) #x0000000000000000)
(model-add temp307_45 () (_ BitVec 64) #x0000000000000000)
(model-add temp307_44 () (_ BitVec 64) #x0000000000000000)
(model-add temp307_47 () (_ BitVec 64) #x0000000000000000)
(model-add temp307_46 () (_ BitVec 64) #x0000000000000000)
(model-add temp307_49 () (_ BitVec 64) #x0000000000000000)
(model-add temp307_48 () (_ BitVec 64) #x0000000000000000)
(model-add temp307_51 () (_ BitVec 64) #x0000000000000000)
(model-add temp307_50 () (_ BitVec 64) #x0000000000000000)
(model-add temp307_53 () (_ BitVec 64) #x0000000000000000)
(model-add temp307_52 () (_ BitVec 64) #x0000000000000000)
(model-add temp307_55 () (_ BitVec 64) #x0000000000000000)
(model-add temp307_54 () (_ BitVec 64) #x0000000000000000)
(model-add temp307_57 () (_ BitVec 64) #x0000000000000000)
(model-add temp307_56 () (_ BitVec 64) #x0000000000000000)
(model-add temp307_58 () (_ BitVec 64) #x0000000000000000)
(model-add var4918907 () (_ BitVec 64) #x0000000000000000)
(model-add var4918912 () (_ BitVec 64) #x0000000000000000)
(model-add var5048540 () (_ BitVec 64) #x0000000000000000)

